NAME : A056-03f.1739.tour
COMMENT : Cost = 0_1739
COMMENT : Found by LKH [Keld Helsgaun] Tue Sep 12 09:35:35 2017
TYPE : TOUR
DIMENSION : 58
TOUR_SECTION
1
34
56
2
3
15
14
36
5
7
6
48
32
47
57
30
27
26
25
43
22
23
41
21
42
51
24
55
28
50
46
29
54
44
45
31
58
35
49
4
8
33
9
37
10
38
12
20
19
40
39
11
52
13
16
17
18
53
-1
EOF
